c Output_time 26.03.2020 18:13:10_+0100 1585242790252698701
c ** Program information **
c program_name                          "QBRG_debug"
c version                               "0.3.20"
c date                                  "25.3.2020"
c gid_id                                "673970833836058123f633335630c185360d632e"
c author                                "Oliver Kullmann"
c url                                   "https://github.com/OKullmann/oklibrary/blob/master/Satisfiability/Transformers/Generators/Random/QBRG.cpp"
c ** Machine information **
c machine_name                          "chyna-Lenovo-G50-70"
c bogomips                              3791.08
c ** Compilation information **
c compiler_version                      "g++ 7.5.0"
c compilation_date                      "Mar_26_2020 11:16:30"
c compilation_options                   "--std=c++17 -pedantic -fmax-errors=5 -Wall -Wextra -g -D_GLIBCXX_DEBUG"
c NDEBUG                                0
c OPTIMIZE                              0
c ** Parameters **
c command-line                          "./QBRG_debug" "e40 a40 40" "164*1,1|2-2,1|3-3,1" "" "1,t" ""
c output                                "QuBlRaGe_120_164_1585242790252550339.qdimacs"
c options                               "filtered,renamed"
c num_quantifier_blocks                 3
c  quantifier_blocks                    1:e1-40 2:a41-80 3:e81-120
c num_clause-blocks                     1
c  clause-blocks                        164 * {1-40,1,1/2} | {41-80,1,1/2} | {81-120,1,1/2}
c num_e-seeds                           30+2=32
c  e-seeds                              1 0 1 0 4 120 2 40 1 40 0 40 1 164 3 1 1 1 1 2 2 2 1 1 2 3 3 1 1 2 1 1585242790252549897
p cnf 118 164
e 1 2 3 4 5 6 7 8 9 10 11 12 13 14 15 16 17 18 19 20 21 22 23 24 25 26 27 28 29 30 31 32 33 34 35 36 37 38 39 0
a 40 41 42 43 44 45 46 47 48 49 50 51 52 53 54 55 56 57 58 59 60 61 62 63 64 65 66 67 68 69 70 71 72 73 74 75 76 77 78 0
e 79 80 81 82 83 84 85 86 87 88 89 90 91 92 93 94 95 96 97 98 99 100 101 102 103 104 105 106 107 108 109 110 111 112 113 114 115 116 117 118 0
-31 64 -79 0
-4 -47 79 0
-24 50 79 0
18 54 79 0
-33 70 79 0
4 51 -80 0
31 50 80 0
34 -46 -81 0
4 51 81 0
21 57 81 0
7 -74 81 0
38 67 82 0
2 56 83 0
-38 -66 83 0
30 -78 83 0
-4 -40 -84 0
30 47 84 0
20 -49 84 0
6 -62 84 0
-38 69 84 0
25 77 84 0
-34 -74 -85 0
11 -53 85 0
-28 -57 85 0
31 41 -86 0
38 45 -86 0
-17 75 -86 0
17 -46 86 0
25 -47 86 0
-7 -51 86 0
6 48 -87 0
9 55 -87 0
-3 68 -87 0
20 -75 -87 0
25 51 87 0
-8 53 87 0
-29 43 88 0
-39 -63 88 0
-28 74 88 0
-19 45 -89 0
22 -56 -89 0
-13 64 -89 0
33 68 -89 0
3 76 -89 0
-39 78 -89 0
-17 -73 90 0
24 49 -91 0
-11 78 -91 0
32 -67 91 0
-22 45 -92 0
-27 -46 -92 0
3 66 -92 0
-27 -54 92 0
39 66 92 0
-11 74 92 0
-20 -62 -93 0
23 -65 -93 0
4 76 -93 0
-15 -78 -93 0
28 44 -94 0
-37 76 94 0
3 52 -95 0
8 69 -95 0
-10 60 95 0
14 62 95 0
7 -66 95 0
-28 42 -96 0
-30 63 -96 0
-10 76 -96 0
28 -43 96 0
32 48 96 0
-18 50 96 0
1 -48 -97 0
-6 57 -97 0
38 66 -97 0
-28 -67 -97 0
-37 -47 97 0
-26 52 97 0
-4 -53 97 0
-36 63 97 0
39 -77 -98 0
23 -41 98 0
-7 41 98 0
25 41 98 0
-9 59 -99 0
14 -57 99 0
-2 -58 99 0
14 -59 99 0
17 66 99 0
-4 48 -100 0
39 -67 -100 0
6 77 -100 0
36 -42 101 0
-14 -55 101 0
35 74 101 0
-30 55 -102 0
37 -56 -102 0
-6 60 -102 0
11 73 -102 0
-19 -74 -102 0
-32 -49 -103 0
-12 66 -103 0
32 -51 103 0
-17 -68 103 0
-4 40 -104 0
24 -55 -104 0
8 60 -104 0
9 -77 -104 0
-36 77 -104 0
-5 40 104 0
6 -57 104 0
36 77 104 0
17 43 -105 0
10 77 -105 0
-25 -44 105 0
5 58 105 0
23 -60 -106 0
24 55 106 0
13 -45 -107 0
-15 -64 -107 0
-16 43 107 0
-33 -52 107 0
-39 51 -108 0
-39 60 108 0
-27 63 108 0
-31 -70 108 0
-4 57 -109 0
13 61 -109 0
11 44 109 0
-15 51 109 0
22 -61 109 0
-30 -69 -110 0
22 -61 110 0
14 68 110 0
3 -62 -111 0
2 -69 -111 0
-13 70 -111 0
24 -46 111 0
-16 57 -112 0
-34 -71 112 0
-1 71 112 0
10 -78 112 0
-32 78 112 0
-30 -40 -113 0
24 -51 -113 0
-24 -70 -113 0
31 72 -113 0
-22 76 -113 0
-10 41 114 0
-5 -52 -115 0
36 71 -115 0
31 41 115 0
-37 59 115 0
-19 71 115 0
22 55 -116 0
-32 -41 116 0
-5 49 116 0
32 -72 116 0
-27 -42 -117 0
16 47 -117 0
-3 69 -117 0
39 66 117 0
-28 -53 -118 0
-21 -66 118 0
